Route #1: 7 38 36 15 16 17 9
Route #2: 10 31 12 8 2 23 1
Route #3: 37 28 14 19 18 5 21 20 33
Route #4: 4 35 41
Route #5: 11 13 30 29 32 27 25 40
Route #6: 3 22 24 6 39 34 42 26
Cost 742
Time 0.061997
